\ Model Q1
\ LP format - for model browsing. Use MPS format to capture full model detail.
Maximize
  10 deluxe + 15 professional
Subject To
 R0: 2 deluxe + 4 professional <= 100
 R1: 3 deluxe + 2 professional <= 80
Bounds
End
